set JP:=
1 1
1 4
2 1
2 2
2 3
2 4
3 2
3 3
3 5
4 3
4 5;

param M :=
1 1 10000
1 4 10000
2 1 10000
2 2 10000
2 3 10000
2 4 10000
3 2 10000
3 3 10000
3 5 10000
4 3 10000
4 5 10000;

param alphaC :=
1 1 1.5e6
1 4 1.5e6
2 1 1e6
2 2 1.2e6
2 3 1.2e6
2 4 1e6
3 2 1e6
3 3 1e6
3 5 1e6
4 3 1.2e6
4 5 1e6;

param betaC :=
1 1 30
1 4 30
2 1 40
2 2 40
2 3 40
2 4 40
3 2 30
3 3 30
3 5 30
4 3 35 
4 5 30;

param p:=
1 0.25
2 0.5
3 0.25;


